n_res = 5;
n_events = 52;
n_prec = 135;
source = 1;
sink = 52;
min_lvl = [-11, -4, -1, -4, -7];
max_lvl = [-2, 5, 4, 11, 4];
rr = [| 0, -1, 1, 2, -1, -2, -1, -2, 0, 2, 2, -2, -1, 0, 0, -1, -1, -2, 0, 0, 0, 0, -1, -1, -2, 0, 1, 2, -2, 0, 0, 0, 0, 0, 0, -2, 2, 0, 0, 1, 0, 0, 0, -1, 2, 0, -2, -1, 2, 0, 0, 0
      | 0, -1, 0, 0, -1, 0, 0, 0, 1, 0, -2, 0, -1, 0, -1, -1, 0, 1, 0, 0, 0, 2, -1, 0, -2, 0, 1, -1, 0, -2, -1, 0, 1, 0, 2, 0, 2, 0, -1, 1, 2, 0, 2, -2, 0, 0, 2, -2, 0, 0, -1, 0
      | 0, -1, 0, 0, 0, 2, 0, -2, 2, -2, 0, 1, 0, 0, -1, -1, 0, 2, 1, 0, -1, 1, 1, 2, 1, 1, -2, 0, -2, 0, -2, 0, -1, 0, 0, 0, 0, 0, -1, 0, 2, 0, 1, -1, 1, -1, 0, 2, 0, 1, 0, 0
      | 0, 0, 2, 2, -2, -1, 0, 1, -1, 0, 1, -2, 1, 0, 1, 2, 0, 1, 0, 1, 2, 0, -1, 1, 2, 2, 1, 2, 1, 0, -2, 0, 2, -2, 0, 0, 1, -1, -1, -2, 0, 1, 0, -2, 0, 0, 2, -2, 0, 0, 1, 0
      | 0, -1, 1, -1, 0, -1, 1, 0, 0, 1, -2, 2, 0, -2, 2, 2, 0, 0, -2, -2, 2, 2, 1, 1, 0, 0, -1, 0, -2, 1, -2, 0, 0, 0, 1, 0, 0, -2, 0, -2, -2, 0, 0, 2, -1, 1, 0, -2, 2, -1, 0, 0 |];
prec = [| 1, 0, 5
        | 1, 0, 4
        | 1, 0, 6
        | 1, 0, 3
        | 1, 0, 7
        | 1, 0, 17
        | 1, 0, 2
        | 2, 0, 22
        | 2, 0, 46
        | 2, 0, 26
        | 2, 2, 39
        | 3, -6, 13
        | 3, 1, 28
        | 3, 26, 40
        | 3, 7, 39
        | 4, 8, 34
        | 4, 17, 41
        | 4, 21, 8
        | 5, 11, 49
        | 5, 11, 14
        | 6, 4, 50
        | 7, -1, 17
        | 7, 2, 20
        | 7, 1, 26
        | 7, 21, 28
        | 7, 3, 37
        | 8, 12, 38
        | 9, -2, 47
        | 9, -4, 51
        | 9, -4, 11
        | 10, -1, 46
        | 10, -4, 19
        | 10, 4, 26
        | 10, -14, 24
        | 10, 10, 28
        | 10, 13, 45
        | 10, 0, 43
        | 10, -14, 12
        | 11, 0, 8
        | 11, 12, 25
        | 11, -3, 47
        | 12, 5, 21
        | 12, 5, 46
        | 12, 1, 28
        | 12, 0, 37
        | 13, 19, 19
        | 14, 2, 49
        | 15, -5, 45
        | 15, 9, 29
        | 15, 4, 48
        | 16, 5, 45
        | 17, 4, 35
        | 18, 1, 16
        | 18, -6, 21
        | 18, 12, 9
        | 18, 5, 8
        | 18, 10, 46
        | 18, 3, 30
        | 18, 28, 47
        | 19, 5, 20
        | 19, -1, 11
        | 20, 27, 25
        | 20, 28, 18
        | 21, 0, 45
        | 21, 0, 16
        | 21, -53, 28
        | 22, 26, 30
        | 22, 18, 46
        | 23, 0, 29
        | 23, 0, 45
        | 23, 1, 32
        | 24, 9, 10
        | 24, 11, 47
        | 24, 2, 38
        | 25, -1, 21
        | 25, 6, 28
        | 26, -81, 36
        | 26, 0, 46
        | 26, -60, 39
        | 27, 0, 28
        | 27, 7, 25
        | 27, -5, 16
        | 28, 17, 16
        | 28, 1, 21
        | 29, 15, 11
        | 29, -6, 48
        | 29, -3, 27
        | 29, 2, 13
        | 29, 7, 47
        | 30, 0, 26
        | 30, 11, 46
        | 30, 7, 39
        | 31, 4, 16
        | 31, 7, 44
        | 31, -1, 36
        | 32, 0, 48
        | 32, 7, 33
        | 33, 14, 48
        | 34, -1, 18
        | 34, -6, 31
        | 34, 4, 21
        | 35, -4, 12
        | 36, 6, 13
        | 37, 2, 24
        | 38, 14, 47
        | 39, 3, 26
        | 40, -1, 11
        | 40, 11, 20
        | 40, 1, 19
        | 40, -1, 42
        | 40, 8, 39
        | 41, 0, 9
        | 41, 3, 23
        | 41, -4, 42
        | 41, 7, 26
        | 42, 3, 41
        | 42, 0, 23
        | 43, 16, 15
        | 43, 9, 51
        | 44, 3, 36
        | 45, -22, 16
        | 45, -36, 21
        | 45, 10, 52
        | 45, -45, 11
        | 46, 6, 52
        | 47, 7, 52
        | 48, -38, 23
        | 48, -17, 29
        | 48, -38, 33
        | 48, 5, 52
        | 48, -31, 15
        | 49, 10, 52
        | 50, -6, 6
        | 50, 10, 52
        | 51, 5, 52 |];
